
  32    4
  10   10   10   10

   0   0   0   0   0   3 2 4 15 
   5  10  10  10  10   2 6 3 
   6  10  10  10  10   1 5 
   1  10  10  10  10   1 5 
   6  10  10  10  10   2 12 7 
   6  10  10  10  10   1 7 
   6  10  10  10  10   1 8 
   5  10  10  10  10   1 9 
   5  10  10  10  10   1 10 
   1  10  10  10  10   1 11 
   8  10  10  10  10   2 25 13 
  10  10  10  10  10   2 25 14 
   2  10  10  10  10   1 14 
   1  10  10  10  10   1 16 
   7  10  10  10  10   1 16 
  10  10  10  10  10   1 17 
   4  10  10  10  10   1 18 
  10  10  10  10  10   1 19 
   3  10  10  10  10   2 24 20 
   1  10  10  10  10   1 21 
   1  10  10  10  10   1 22 
   3  10  10  10  10   1 23 
   8  10  10  10  10   1 26 
   9  10  10  10  10   1 26 
  10  10  10  10  10   1 26 
   3  10  10  10  10   1 27 
   7  10  10  10  10   1 28 
   9  10  10  10  10   1 29 
   3  10  10  10  10   1 30 
   5  10  10  10  10   1 31 
   6  10  10  10  10   1 32
   0   0   0   0   0   0 
